(set-logic QF_S)
(declare-fun T0_2 () String)
(declare-fun T2_2 () String)
(declare-fun PCTEMP_LHS_1_group_1 () String)
(declare-fun var_0xINPUT_9 () String)
(declare-fun PCTEMP_LHS_1_idx_0 () String)
(declare-fun T1_2 () String)
(assert (and (= var_0xINPUT_9 (concat T0_2 T1_2)) (= T1_2 (concat PCTEMP_LHS_1_idx_0 T2_2)) (not (in T0_2 /john/)) (= PCTEMP_LHS_1_group_1 PCTEMP_LHS_1_idx_0) (in PCTEMP_LHS_1_idx_0 /john/) (<= (len PCTEMP_LHS_1_idx_0) 14)))
(check-sat var_0xINPUT_9)